Li8 Mn4 O12                             
   1.0000000000000000     
     0.0000000000000000    4.9125090963417808    0.0000000000000000
     8.4967460348859127    0.0000000000000000    0.0000000000000000
     0.0000000000000000   -3.3224027199465427   -9.4256767172242295
   Li   Mn   O 
    15     8    24
Direct
  0.0099706479885313  0.0060693061688610  0.5102148605385395
  0.0019800936469849  0.0060560808285146  0.0039921993177998
  0.5061100342968814  0.0140854438094635  0.2571344245075977
  0.5059180672695476  0.0067707662229495  0.7570912227810638
  0.0060216498555761  0.1722692131856718  0.2571148946429815
  0.0059549643491650  0.1684234176901995  0.7571358260958334
  0.5059335096319657  0.3462708306902087  0.7571316508920987
  0.5094598887858055  0.5049996557117424  0.0121201469704530
  0.0060417673976829  0.4944315945897912  0.2571286677674820
  0.0058740660249370  0.5076553175853888  0.7570896631966946
  0.5025600972189395  0.5050374993351241  0.5021131723363723
  0.5060290283711737  0.6555270569201852  0.2571209194223343
  0.5059313934774679  0.6670944560035679  0.7571194825842298
  0.0060260106419321  0.8452013110648480  0.2571088832694244
  0.0059243682514492  0.8466708257387339  0.7571182328263646
  0.5088628710083043  0.1757836931502226  0.0083002629434361
  0.0131822149242140  0.3399745281064810  0.0078256697559809
  0.0038713809820337  0.6747023040705429  0.0058849732296267
  0.5051580631021650  0.8406088084840562  0.0070592262689715
  0.5030909497672056  0.1758143761242437  0.5059146578890505
  0.9988268721745328  0.3400206562662547  0.5064053150340939
  0.0081401824303882  0.6746708761343498  0.5083364020934127
  0.5068272439262103  0.8406151528035366  0.5071321099433703
  0.7259014728570108  0.0077227856673332  0.1208991023984325
  0.2874798583420528  0.0080784329362089  0.8932346116561121
  0.2861435910996022  0.0077125290606190  0.3933178033620948
  0.7244688416450771  0.0080647110375409  0.6209725516849574
  0.2585467890484807  0.1857412479513059  0.6197513003252837
  0.2585138245945018  0.1832387164684803  0.1143842340764607
  0.7535029558548842  0.1832450804402868  0.3998782660322249
  0.7534282760630759  0.1857350879617314  0.8944492290959971
  0.2571136986612856  0.3293665006034203  0.8946539011802628
  0.7688325435280490  0.3269930569299220  0.1164027332280355
  0.2431629451568611  0.3269981148186218  0.3978402744826042
  0.7548773340006960  0.3293573712608477  0.6195462110515493
  0.7949881048430498  0.5103440326003508  0.3975916897257932
  0.2245348737793194  0.5067502967164401  0.6215918047112368
  0.2170445565512580  0.5103524790752729  0.1166525183854006
  0.7874169599267660  0.5067596847801070  0.8926349137058551
  0.2512343357858953  0.6867439084482641  0.8944272342872210
  0.7581693442157018  0.6862209370934167  0.1182574519805755
  0.2538498274471976  0.6862177042920763  0.3959745750122892
  0.7607459523688007  0.6867533437265436  0.6197646597363260
  0.2632122706751687  0.8297726446596272  0.6204023107963721
  0.2593453468092761  0.8286513911253692  0.1186206153687408
  0.7526936797100277  0.8286527033248845  0.3956071198312827
  0.7487744753771253  0.8297708895816527  0.8937920320596646
