Li   Mn   O
   1.000
    0.0000000000000000    4.9125090963417799    0.0000000000000000
    8.4967460348859092    0.0000000000000000    0.0000000000000000
    0.0000000000000000   -3.3224027199465400   -9.4256767172242295
   Ti  Li   Mn   O 
   1   14    8   24
Direct
    0.5102197244147331    0.5071116353130135    0.2547875740341916   Li12
    0.0217797701079023    0.0070883529910026    0.5106666421312975    Li1
    0.9904961723602743    0.0071153027051451    0.0038360701150109    Li2
    0.5060854248841206    0.0070475219437701    0.2572201148922587    Li3
    0.5056344855630516    0.0070593234661232    0.7571742899278217    Li4
    0.0057392461133729    0.1743817281182666    0.2571255651910386    Li5
    0.0061054184635179    0.1664273688350275    0.7571760934854529    Li6
    0.5060718479349898    0.3454190214185305    0.7570622894274680    Li7
    0.4941503372765007    0.5070460913152913    0.9985810314736894    Li8
    0.0098728156752720    0.5070190206415458    0.2580065626484826    Li9
    0.0055874285029593    0.5070500531542936    0.7570241154878004   Li10
    0.5175715244036833    0.5070225105879439    0.5144070277388305   Li11
    0.5060744390439682    0.6686723806647727    0.7570962460319737   Li13
    0.0057705896466312    0.8397408615255730    0.2571689262490879   Li14
    0.0061947909186903    0.8476914514158901    0.7571572360057538   Li15
    0.4948901527348220    0.1748947871457105    0.0086974266089928    Mn1
    0.9927431133707572    0.3376588845298701    0.0038235103865719    Mn2
    0.9928191715728221    0.6763799024022101    0.0039340238186332    Mn3
    0.4948896565002642    0.8392862327918498    0.0086511057217389    Mn4
    0.5169872473136347    0.1748170130956966    0.5057388298257590    Mn5
    0.0185302529108242    0.3378849403027424    0.5104227159019338    Mn6
    0.0187690464225310    0.6764557510835117    0.5105804443677125    Mn7
    0.5169913415777807    0.8389404645811096    0.5056813181939839    Mn8
    0.7143500689059221    0.0070786283368307    0.1209359140224839     O1
    0.2769565070262850    0.0070847525841391    0.8924892751856903     O2
    0.2968961921183945    0.0068776861844108    0.3933422383005430     O3
    0.7346550559509112    0.0067596889720514    0.6218641053193440     O4
    0.2731562839678197    0.1841151519144656    0.6211865712003990     O5
    0.2434110818770775    0.1836578658537125    0.1143137369620804     O6
    0.7678534543380300    0.1836212615678918    0.3998758706607753     O7
    0.7381191742023754    0.1839315372146964    0.8931951125223265     O8
    0.2419203232314881    0.3271641357531518    0.8925040050131791     O9
    0.7498364372880403    0.3306870548155618    0.1159663769201698    O10
    0.2612348997765026    0.3304047257199776    0.3983624828285911    O11
    0.7696268373684516    0.3273500364399908    0.6219319324241839    O12
    0.8174176250314041    0.5073102885289974    0.4059203747048385    O13
    0.2372825642636708    0.5071283399608278    0.6260320101462730    O14
    0.1943650680126957    0.5069951112201366    0.1084621223287635    O15
    0.7751282478262139    0.5069838872248263    0.8883357638635034    O16
    0.2420767391973113    0.6869824427163472    0.8926356302175384    O17
    0.7497652498257710    0.6835016881372802    0.1159151639143494    O18
    0.2609092169339258    0.6834989935596433    0.3983274827698237    O19
    0.7695489453565102    0.6866114578669035    0.6219736826217171    O20
    0.2736591234993773    0.8303129765837605    0.6212459356690060    O21
    0.2434236254461951    0.8304229828018139    0.1142231039938821    O22
    0.7679323197825000    0.8301892064471871    0.3998508519496669    O23
    0.7381911653777973    0.8299836337491326    0.8933338560019543    O24
